12
48
1048
1017
844
1185
1013
900
1101
962
1224
931
1224
1115
104	603
297	298
553	16
771	291
274	400
376	850
218	425
634	757
162	835
370	384
603	156
899	83
610	483
958	184
910	377
884	235
374	829
623	491
35	823
989	256
579	591
528	109
497	87
517	527
652	542
491	254
404	103
112	221
728	25
757	677
554	24
35	679
93	892
680	233
629	432
760	431
651	981
367	878
680	176
456	630
409	322
934	686
295	239
862	861
839	730
282	566
546	302
148	698
